c defined variables: 13 25 29 33 37 41 45 49 53 57 61 65 69 73 77 81 85 89 93 97 101 105 109 113 126 136 140 144 148 152 156 160 164 168 172 176 180 190 194 198 202 206 210 214 218 222 226 230 234 235 237 238 239 241 242 244 245 246 247 249 250 252 253 254 256 257 260 261 263 264 266 267 268 270 271 273 274 275 276 278 279 281 282 283 285 286 288 289 290 291 292 293 295 296 298 299 300 302 303 305 306 307 308 310 311 313 314 315 319 320 321 322 323 325 326 328 329 330 332 333 335 336 337 338 340 341 343 344 345 347 348 350 351 352 353 354 355 356 357 358 359 360 361 362 363 364 365 366 367 368 369 370 371 372 373 374 376 377 378 379 380 381 382 383 384 385 386 387 388 389 390 391 392 393 394 395 396 397 398 399 400 401 402 403 404 405 406 407 408 409 410 411 412 413 414 415 416 417 418 419 420 422 423 424 425 426 427 428 429 430 431 432 433 434 435 436 437 438 439 440 441 442 443 444 445 446 447 448 449 450 451 452 453 455 
p cnf 1623 2067
a 229 68 72 56 64 48 60 40 52 32 44 297 301 265 269 272 277 280 284 287 294 339 334 324 318 331 327 309 304 421 312 20 36 4 8 24 16 1 28 12 349 5 342 346 21 2 9 17 186 183 167 171 179 175 151 155 159 163 375 262 236 240 233 251 255 243 248 197 201 193 189 209 217 205 213 221 225 104 96 100 92 88 84 76 80 112 108 122 135 129 132 116 139 125 119 147 143 0
e 3 6 7 10 11 14 15 18 19 22 23 26 27 30 31 34 35 38 39 42 43 46 47 50 51 54 55 58 59 62 63 66 67 70 71 74 75 78 79 82 83 86 87 90 91 94 95 98 99 102 103 106 107 110 111 114 115 117 118 120 121 123 124 127 128 130 131 133 134 137 138 141 142 145 146 149 150 153 154 157 158 161 162 165 166 169 170 173 174 177 178 181 182 184 185 187 188 191 192 195 196 199 200 203 204 207 208 211 212 215 216 219 220 223 224 227 228 231 232 259 317 454 13 25 29 33 37 41 45 49 53 57 61 65 69 73 77 81 85 89 93 97 101 105 109 113 126 136 140 144 148 152 156 160 164 168 172 176 180 190 194 198 202 206 210 214 218 222 226 230 234 235 237 238 239 241 242 244 245 246 247 249 250 252 253 254 256 257 260 261 263 264 266 267 268 270 271 273 274 275 276 278 279 281 282 283 285 286 288 289 290 291 292 293 295 296 298 299 300 302 303 305 306 307 308 310 311 313 314 315 319 320 321 322 323 325 326 328 329 330 332 333 335 336 337 338 340 341 343 344 345 347 348 350 351 352 353 354 355 356 357 358 359 360 361 362 363 364 365 366 367 368 369 370 371 372 373 374 376 377 378 379 380 381 382 383 384 385 386 387 388 389 390 391 392 393 394 395 396 397 398 399 400 401 402 403 404 405 406 407 408 409 410 411 412 413 414 415 416 417 418 419 420 422 423 424 425 426 427 428 429 430 431 432 433 434 435 436 437 438 439 440 441 442 443 444 445 446 447 448 449 450 451 452 453 455 1407 1408 1409 1410 1411 1412 1413 1414 1415 1416 1417 1418 1419 1420 1421 1422 1423 1424 1425 1426 1427 1428 1429 1430 1431 1432 1433 1434 1435 1436 1437 1438 1439 1440 1441 1442 1443 1444 1445 1446 1447 1448 1449 1450 1451 1452 1453 1454 1455 1456 1457 1458 1459 1460 1461 1462 1463 1464 1465 1466 1467 1468 1469 1470 1471 1472 1473 1474 1475 1476 1477 1478 1479 1480 1481 1482 1483 1484 1485 1486 1487 1488 1489 1490 1491 1492 1493 1494 1495 1496 1497 1498 1499 1500 1501 1502 1503 1504 1505 1506 1507 1508 1509 1510 1511 1512 1513 1514 1515 1516 1517 1518 1519 1520 1521 1522 1523 1524 1525 1526 1527 1528 1529 1530 1531 1532 1533 1534 1535 1536 1537 1538 1539 1540 1541 1542 1543 1544 1545 1546 1547 1548 1549 1550 1551 1552 1553 1554 1555 1556 1557 1558 1559 1560 1561 1562 1563 1564 1565 1566 1567 1568 1569 1570 1571 1572 1573 1574 1575 1576 1577 1578 1579 1580 1581 1582 1583 1584 1585 1586 1587 1588 1589 1590 1591 1592 1593 1594 1595 1596 1597 1598 1599 1600 1601 1602 1603 1604 1605 1606 1607 1608 1609 1610 1611 1612 1613 1614 1615 1616 1617 1618 1619 1620 1621 1622 1623 0
d 258 375 186 183 2 0
d 316 2 421 0
1408 -13 0
-1408 13 0
1409 -25 0
-1409 25 0
1410 -29 0
-1410 29 0
1411 -33 0
-1411 33 0
1412 -37 0
-1412 37 0
1413 -41 0
-1413 41 0
1414 -45 0
-1414 45 0
1415 -49 0
-1415 49 0
1416 -53 0
-1416 53 0
1417 -57 0
-1417 57 0
1418 -61 0
-1418 61 0
1419 -65 0
-1419 65 0
1420 -69 0
-1420 69 0
1421 -73 0
-1421 73 0
1422 -77 0
-1422 77 0
1423 -81 0
-1423 81 0
1424 -85 0
-1424 85 0
1425 -89 0
-1425 89 0
1426 -93 0
-1426 93 0
1427 -97 0
-1427 97 0
1428 -101 0
-1428 101 0
1429 -105 0
-1429 105 0
1430 -109 0
-1430 109 0
1431 -113 0
-1431 113 0
1432 -126 0
-1432 126 0
1433 -136 0
-1433 136 0
1434 -140 0
-1434 140 0
1435 -144 0
-1435 144 0
1436 -148 0
-1436 148 0
1437 -152 0
-1437 152 0
1438 -156 0
-1438 156 0
1415 -160 0
-1415 160 0
1439 -164 0
-1439 164 0
1440 -168 0
-1440 168 0
1441 -172 0
-1441 172 0
1442 -176 0
-1442 176 0
1443 -180 0
-1443 180 0
1444 -190 0
-1444 190 0
1445 -194 0
-1445 194 0
1446 -198 0
-1446 198 0
1447 -202 0
-1447 202 0
1448 -206 0
-1448 206 0
1427 -210 0
-1427 210 0
1449 -214 0
-1449 214 0
1450 -218 0
-1450 218 0
1451 -222 0
-1451 222 0
1452 -226 0
-1452 226 0
1453 -230 0
-1453 230 0
1454 -234 0
-1454 234 0
1455 -235 0
-1455 235 0
1456 -237 0
-1456 237 0
1457 -238 0
-1457 238 0
-1458 -239 0
1458 239 0
1459 -241 0
-1459 241 0
1460 -242 0
-1460 242 0
1461 -244 0
-1461 244 0
1462 -245 0
-1462 245 0
-1463 -246 0
1463 246 0
-1464 -247 0
1464 247 0
1465 -249 0
-1465 249 0
1466 -250 0
-1466 250 0
1467 -252 0
-1467 252 0
1468 -253 0
-1468 253 0
-1469 -254 0
1469 254 0
1470 -256 0
-1470 256 0
1471 -257 0
-1471 257 0
-1472 -260 0
1472 260 0
-1473 -261 0
1473 261 0
1474 -263 0
-1474 263 0
1475 -264 0
-1475 264 0
1476 -266 0
-1476 266 0
1477 -267 0
-1477 267 0
-1478 -268 0
1478 268 0
1479 -270 0
-1479 270 0
1480 -271 0
-1480 271 0
1481 -273 0
-1481 273 0
1482 -274 0
-1482 274 0
-1483 -275 0
1483 275 0
-1484 -276 0
1484 276 0
1485 -278 0
-1485 278 0
1486 -279 0
-1486 279 0
1487 -281 0
-1487 281 0
1488 -282 0
-1488 282 0
-1489 -283 0
1489 283 0
1490 -285 0
-1490 285 0
1491 -286 0
-1491 286 0
1492 -288 0
-1492 288 0
1493 -289 0
-1493 289 0
-1494 -290 0
1494 290 0
-1495 -291 0
1495 291 0
-1496 -292 0
1496 292 0
-1497 -293 0
1497 293 0
1498 -295 0
-1498 295 0
1499 -296 0
-1499 296 0
1500 -298 0
-1500 298 0
1501 -299 0
-1501 299 0
-1502 -300 0
1502 300 0
1503 -302 0
-1503 302 0
1504 -303 0
-1504 303 0
1505 -305 0
-1505 305 0
1506 -306 0
-1506 306 0
-1507 -307 0
1507 307 0
-1508 -308 0
1508 308 0
1509 -310 0
-1509 310 0
1510 -311 0
-1510 311 0
1511 -313 0
-1511 313 0
1512 -314 0
-1512 314 0
-1513 -315 0
1513 315 0
1514 -319 0
-1514 319 0
1515 -320 0
-1515 320 0
-1516 -321 0
1516 321 0
-1517 -322 0
1517 322 0
-1518 -323 0
1518 323 0
1519 -325 0
-1519 325 0
1520 -326 0
-1520 326 0
1521 -328 0
-1521 328 0
1522 -329 0
-1522 329 0
-1523 -330 0
1523 330 0
1524 -332 0
-1524 332 0
1525 -333 0
-1525 333 0
1526 -335 0
-1526 335 0
1527 -336 0
-1527 336 0
-1528 -337 0
1528 337 0
-1529 -338 0
1529 338 0
1530 -340 0
-1530 340 0
1531 -341 0
-1531 341 0
1532 -343 0
-1532 343 0
1533 -344 0
-1533 344 0
-1534 -345 0
1534 345 0
1535 -347 0
-1535 347 0
1536 -348 0
-1536 348 0
1537 -350 0
-1537 350 0
1538 -351 0
-1538 351 0
-1539 -352 0
1539 352 0
-1540 -353 0
1540 353 0
-1541 -354 0
1541 354 0
-1542 -355 0
1542 355 0
-1543 -356 0
1543 356 0
1544 -357 0
-1544 357 0
1545 -358 0
-1545 358 0
1546 -359 0
-1546 359 0
1547 -360 0
-1547 360 0
-1548 -361 0
1548 361 0
1549 -362 0
-1549 362 0
1550 -363 0
-1550 363 0
1551 -364 0
-1551 364 0
1552 -365 0
-1552 365 0
-1553 -366 0
1553 366 0
-1554 -367 0
1554 367 0
1555 -368 0
-1555 368 0
1556 -369 0
-1556 369 0
1557 -370 0
-1557 370 0
1558 -371 0
-1558 371 0
-1559 -372 0
1559 372 0
1560 -373 0
-1560 373 0
1561 -374 0
-1561 374 0
1562 -376 0
-1562 376 0
1563 -377 0
-1563 377 0
-1564 -378 0
1564 378 0
-1565 -379 0
1565 379 0
-1566 -380 0
1566 380 0
1567 -381 0
-1567 381 0
1568 -382 0
-1568 382 0
1569 -383 0
-1569 383 0
1570 -384 0
-1570 384 0
-1571 -385 0
1571 385 0
1572 -386 0
-1572 386 0
1573 -387 0
-1573 387 0
1574 -388 0
-1574 388 0
1575 -389 0
-1575 389 0
-1576 -390 0
1576 390 0
-1577 -391 0
1577 391 0
1578 -392 0
-1578 392 0
1579 -393 0
-1579 393 0
1580 -394 0
-1580 394 0
1581 -395 0
-1581 395 0
-1582 -396 0
1582 396 0
1583 -397 0
-1583 397 0
1584 -398 0
-1584 398 0
1585 -399 0
-1585 399 0
1586 -400 0
-1586 400 0
-1587 -401 0
1587 401 0
-1588 -402 0
1588 402 0
-1589 -403 0
1589 403 0
-1590 -404 0
1590 404 0
1498 -405 0
-1498 405 0
1591 -406 0
-1591 406 0
1500 -407 0
-1500 407 0
1592 -408 0
-1592 408 0
-1593 -409 0
1593 409 0
1503 -410 0
-1503 410 0
1594 -411 0
-1594 411 0
1505 -412 0
-1505 412 0
1595 -413 0
-1595 413 0
-1596 -414 0
1596 414 0
-1597 -415 0
1597 415 0
1509 -416 0
-1509 416 0
1598 -417 0
-1598 417 0
1511 -418 0
-1511 418 0
1599 -419 0
-1599 419 0
-1600 -420 0
1600 420 0
1601 -422 0
-1601 422 0
1602 -423 0
-1602 423 0
1514 -424 0
-1514 424 0
1603 -425 0
-1603 425 0
-1604 -426 0
1604 426 0
-1605 -427 0
1605 427 0
-1606 -428 0
1606 428 0
1519 -429 0
-1519 429 0
1607 -430 0
-1607 430 0
1521 -431 0
-1521 431 0
1608 -432 0
-1608 432 0
-1609 -433 0
1609 433 0
1524 -434 0
-1524 434 0
1610 -435 0
-1610 435 0
1526 -436 0
-1526 436 0
1611 -437 0
-1611 437 0
-1612 -438 0
1612 438 0
-1613 -439 0
1613 439 0
1530 -440 0
-1530 440 0
1614 -441 0
-1614 441 0
1532 -442 0
-1532 442 0
1615 -443 0
-1615 443 0
-1616 -444 0
1616 444 0
1535 -445 0
-1535 445 0
1617 -446 0
-1617 446 0
1537 -447 0
-1537 447 0
1618 -448 0
-1618 448 0
-1619 -449 0
1619 449 0
-1620 -450 0
1620 450 0
-1621 -451 0
1621 451 0
-1622 -452 0
1622 452 0
-1623 -453 0
1623 453 0
1407 -455 0
-1407 455 0
455 0
-455 232 454 0
-232 228 -231 0
-228 224 -227 0
-224 220 -223 0
-220 216 -219 0
-216 212 -215 0
-212 208 -211 0
-208 204 -207 0
-204 200 -203 0
-200 196 -199 0
-196 192 -195 0
-192 188 -191 0
-188 185 -187 0
-185 182 -184 0
-182 178 -181 0
-178 174 -177 0
-174 170 -173 0
-170 166 -169 0
-166 162 -165 0
-162 158 -161 0
-158 154 -157 0
-154 150 -153 0
-150 146 -149 0
-146 142 -145 0
-142 138 -141 0
-138 134 -137 0
-134 131 -133 0
-131 128 -130 0
-128 124 -127 0
-124 121 -123 0
-121 118 -120 0
-118 115 -117 0
-115 111 -114 0
-111 107 -110 0
-107 103 -106 0
-103 99 -102 0
-99 95 -98 0
-95 91 -94 0
-91 87 -90 0
-87 83 -86 0
-83 79 -82 0
-79 75 -78 0
-75 71 -74 0
-71 67 -70 0
-67 63 -66 0
-63 59 -62 0
-59 55 -58 0
-55 51 -54 0
-51 47 -50 0
-47 43 -46 0
-43 39 -42 0
-39 35 -38 0
-35 31 -34 0
-31 27 -30 0
-27 23 -26 0
-23 19 -22 0
-19 15 -18 0
-15 11 -14 0
-11 7 -10 0
-7 -3 -6 0
1 -2 3 0
-1 2 3 0
4 -5 6 0
-4 5 6 0
8 -9 10 0
-8 9 10 0
12 13 14 0
-12 -13 14 0
-4 -8 13 0
-13 4 0
-13 8 0
16 -17 18 0
-16 17 18 0
20 -21 22 0
-20 21 22 0
24 25 26 0
-24 -25 26 0
-16 -20 25 0
-25 16 0
-25 20 0
28 29 30 0
-28 -29 30 0
-12 -24 29 0
-29 12 0
-29 24 0
32 33 34 0
-32 -33 34 0
-5 -8 33 0
-33 5 0
-33 8 0
36 37 38 0
-36 -37 38 0
-32 -24 37 0
-37 32 0
-37 24 0
40 41 42 0
-40 -41 42 0
-4 -9 41 0
-41 4 0
-41 9 0
44 45 46 0
-44 -45 46 0
-40 -24 45 0
-45 40 0
-45 24 0
48 49 50 0
-48 -49 50 0
-5 -9 49 0
-49 5 0
-49 9 0
52 53 54 0
-52 -53 54 0
-48 -24 53 0
-53 48 0
-53 24 0
56 57 58 0
-56 -57 58 0
-17 -20 57 0
-57 17 0
-57 20 0
60 61 62 0
-60 -61 62 0
-12 -56 61 0
-61 12 0
-61 56 0
64 65 66 0
-64 -65 66 0
-32 -56 65 0
-65 32 0
-65 56 0
68 69 70 0
-68 -69 70 0
-40 -56 69 0
-69 40 0
-69 56 0
72 73 74 0
-72 -73 74 0
-48 -56 73 0
-73 48 0
-73 56 0
76 77 78 0
-76 -77 78 0
-16 -21 77 0
-77 16 0
-77 21 0
80 81 82 0
-80 -81 82 0
-12 -76 81 0
-81 12 0
-81 76 0
84 85 86 0
-84 -85 86 0
-32 -76 85 0
-85 32 0
-85 76 0
88 89 90 0
-88 -89 90 0
-40 -76 89 0
-89 40 0
-89 76 0
92 93 94 0
-92 -93 94 0
-48 -76 93 0
-93 48 0
-93 76 0
96 97 98 0
-96 -97 98 0
-17 -21 97 0
-97 17 0
-97 21 0
100 101 102 0
-100 -101 102 0
-12 -96 101 0
-101 12 0
-101 96 0
104 105 106 0
-104 -105 106 0
-32 -96 105 0
-105 32 0
-105 96 0
108 109 110 0
-108 -109 110 0
-40 -96 109 0
-109 40 0
-109 96 0
112 113 114 0
-112 -113 114 0
-48 -96 113 0
-113 48 0
-113 96 0
116 -2 117 0
-116 2 117 0
119 -5 120 0
-119 5 120 0
122 -9 123 0
-122 9 123 0
125 126 127 0
-125 -126 127 0
-119 -122 126 0
-126 119 0
-126 122 0
129 -17 130 0
-129 17 130 0
132 -21 133 0
-132 21 133 0
135 136 137 0
-135 -136 137 0
-129 -132 136 0
-136 129 0
-136 132 0
139 140 141 0
-139 -140 141 0
-125 -135 140 0
-140 125 0
-140 135 0
143 144 145 0
-143 -144 145 0
-5 -122 144 0
-144 5 0
-144 122 0
147 148 149 0
-147 -148 149 0
-143 -135 148 0
-148 143 0
-148 135 0
151 152 153 0
-151 -152 153 0
-119 -9 152 0
-152 119 0
-152 9 0
155 156 157 0
-155 -156 157 0
-151 -135 156 0
-156 151 0
-156 135 0
159 160 161 0
-159 -160 161 0
-5 -9 160 0
-160 5 0
-160 9 0
163 164 165 0
-163 -164 165 0
-159 -135 164 0
-164 159 0
-164 135 0
167 168 169 0
-167 -168 169 0
-17 -132 168 0
-168 17 0
-168 132 0
171 172 173 0
-171 -172 173 0
-125 -167 172 0
-172 125 0
-172 167 0
175 176 177 0
-175 -176 177 0
-143 -167 176 0
-176 143 0
-176 167 0
179 180 181 0
-179 -180 181 0
-151 -167 180 0
-180 151 0
-180 167 0
183 159 184 0
-183 -159 184 0
186 167 187 0
-186 -167 187 0
189 190 191 0
-189 -190 191 0
-129 -21 190 0
-190 129 0
-190 21 0
193 194 195 0
-193 -194 195 0
-125 -189 194 0
-194 125 0
-194 189 0
197 198 199 0
-197 -198 199 0
-143 -189 198 0
-198 143 0
-198 189 0
201 202 203 0
-201 -202 203 0
-151 -189 202 0
-202 151 0
-202 189 0
205 206 207 0
-205 -206 207 0
-159 -189 206 0
-206 159 0
-206 189 0
209 210 211 0
-209 -210 211 0
-17 -21 210 0
-210 17 0
-210 21 0
213 214 215 0
-213 -214 215 0
-125 -209 214 0
-214 125 0
-214 209 0
217 218 219 0
-217 -218 219 0
-143 -209 218 0
-218 143 0
-218 209 0
221 222 223 0
-221 -222 223 0
-151 -209 222 0
-222 151 0
-222 209 0
225 226 227 0
-225 -226 227 0
-159 -209 226 0
-226 159 0
-226 209 0
229 230 231 0
-229 -230 231 0
-159 -167 230 0
-230 159 0
-230 167 0
-454 -356 453 0
-454 356 -453 0
-356 293 355 0
-293 261 292 0
-261 247 260 0
-247 239 246 0
-239 235 238 0
-235 234 0
-235 139 0
-234 116 0
-234 233 0
-238 237 0
-238 147 0
-237 116 0
-237 236 0
-246 242 245 0
-242 241 0
-242 155 0
-241 116 0
-241 240 0
-245 244 0
-245 163 0
-244 116 0
-244 243 0
-260 254 259 0
-254 250 253 0
-250 249 0
-250 171 0
-249 116 0
-249 248 0
-253 252 0
-253 175 0
-252 116 0
-252 251 0
-259 257 258 0
-257 256 0
-257 179 0
-256 116 0
-256 255 0
-292 276 -291 0
-276 268 275 0
-268 264 267 0
-264 263 0
-264 193 0
-263 116 0
-263 262 0
-267 266 0
-267 197 0
-266 116 0
-266 265 0
-275 271 274 0
-271 270 0
-271 201 0
-270 116 0
-270 269 0
-274 273 0
-274 205 0
-273 116 0
-273 272 0
-283 290 291 0
283 -290 291 0
-283 -290 291 0
-279 282 283 0
279 -282 283 0
-279 -282 283 0
-278 -213 279 0
-116 -277 278 0
-281 -217 282 0
-116 -280 281 0
-286 289 290 0
286 -289 290 0
-286 -289 290 0
-285 -221 286 0
-116 -284 285 0
-288 -225 289 0
-116 -287 288 0
-355 323 354 0
-323 308 322 0
-308 300 307 0
-300 296 299 0
-296 295 0
-296 139 0
-295 2 0
-295 294 0
-299 298 0
-299 147 0
-298 2 0
-298 297 0
-307 303 306 0
-303 302 0
-303 155 0
-302 2 0
-302 301 0
-306 305 0
-306 163 0
-305 2 0
-305 304 0
-322 315 321 0
-315 311 314 0
-311 310 0
-311 171 0
-310 2 0
-310 309 0
-314 313 0
-314 175 0
-313 2 0
-313 312 0
-321 317 320 0
-317 316 0
-317 179 0
-320 319 0
-320 229 0
-319 2 0
-319 318 0
-354 338 353 0
-338 330 337 0
-330 326 329 0
-326 325 0
-326 193 0
-325 2 0
-325 324 0
-329 328 0
-329 197 0
-328 2 0
-328 327 0
-337 333 336 0
-333 332 0
-333 201 0
-332 2 0
-332 331 0
-336 335 0
-336 205 0
-335 2 0
-335 334 0
-353 345 352 0
-345 341 344 0
-341 340 0
-341 213 0
-340 2 0
-340 339 0
-344 343 0
-344 217 0
-343 2 0
-343 342 0
-352 348 351 0
-348 347 0
-348 221 0
-347 2 0
-347 346 0
-351 350 0
-351 225 0
-350 2 0
-350 349 0
-453 404 452 0
-404 380 403 0
-380 367 379 0
-367 361 366 0
-361 358 360 0
-358 357 0
-358 28 0
-357 1 0
-357 233 0
-360 359 0
-360 36 0
-359 1 0
-359 236 0
-366 363 365 0
-363 362 0
-363 44 0
-362 1 0
-362 240 0
-365 364 0
-365 52 0
-364 1 0
-364 243 0
-379 372 378 0
-372 369 371 0
-369 368 0
-369 60 0
-368 1 0
-368 248 0
-371 370 0
-371 64 0
-370 1 0
-370 251 0
-378 374 377 0
-374 373 0
-374 68 0
-373 1 0
-373 255 0
-377 376 0
-377 72 0
-376 1 0
-376 375 0
-403 391 402 0
-391 385 390 0
-385 382 384 0
-382 381 0
-382 80 0
-381 1 0
-381 262 0
-384 383 0
-384 84 0
-383 1 0
-383 265 0
-390 387 389 0
-387 386 0
-387 88 0
-386 1 0
-386 269 0
-389 388 0
-389 92 0
-388 1 0
-388 272 0
-402 396 401 0
-396 393 395 0
-393 392 0
-393 100 0
-392 1 0
-392 277 0
-395 394 0
-395 104 0
-394 1 0
-394 280 0
-401 398 400 0
-398 397 0
-398 108 0
-397 1 0
-397 284 0
-400 399 0
-400 112 0
-399 1 0
-399 287 0
-452 428 451 0
-428 415 427 0
-415 409 414 0
-409 406 408 0
-406 405 0
-406 28 0
-405 2 0
-405 294 0
-408 407 0
-408 36 0
-407 2 0
-407 297 0
-414 411 413 0
-411 410 0
-411 44 0
-410 2 0
-410 301 0
-413 412 0
-413 52 0
-412 2 0
-412 304 0
-427 420 426 0
-420 417 419 0
-417 416 0
-417 60 0
-416 2 0
-416 309 0
-419 418 0
-419 64 0
-418 2 0
-418 312 0
-426 423 425 0
-423 422 0
-423 68 0
-422 2 0
-422 421 0
-425 424 0
-425 72 0
-424 2 0
-424 318 0
-451 439 450 0
-439 433 438 0
-433 430 432 0
-430 429 0
-430 80 0
-429 2 0
-429 324 0
-432 431 0
-432 84 0
-431 2 0
-431 327 0
-438 435 437 0
-435 434 0
-435 88 0
-434 2 0
-434 331 0
-437 436 0
-437 92 0
-436 2 0
-436 334 0
-450 444 449 0
-444 441 443 0
-441 440 0
-441 100 0
-440 2 0
-440 339 0
-443 442 0
-443 104 0
-442 2 0
-442 342 0
-449 446 448 0
-446 445 0
-446 108 0
-445 2 0
-445 346 0
-448 447 0
-448 112 0
-447 2 0
-447 349 0
-293 355 356 0
293 -355 356 0
-293 -355 356 0
-261 292 293 0
261 -292 293 0
-261 -292 293 0
-247 260 261 0
247 -260 261 0
-247 -260 261 0
-239 246 247 0
239 -246 247 0
-239 -246 247 0
-235 238 239 0
235 -238 239 0
-235 -238 239 0
-234 -139 235 0
-116 -233 234 0
-237 -147 238 0
-116 -236 237 0
-242 245 246 0
242 -245 246 0
-242 -245 246 0
-241 -155 242 0
-116 -240 241 0
-244 -163 245 0
-116 -243 244 0
-254 259 260 0
254 -259 260 0
-254 -259 260 0
-250 253 254 0
250 -253 254 0
-250 -253 254 0
-249 -171 250 0
-116 -248 249 0
-252 -175 253 0
-116 -251 252 0
-257 258 259 0
257 -258 259 0
-257 -258 259 0
-256 -179 257 0
-116 -255 256 0
-276 -291 292 0
276 291 292 0
-276 291 292 0
-268 275 276 0
268 -275 276 0
-268 -275 276 0
-264 267 268 0
264 -267 268 0
-264 -267 268 0
-263 -193 264 0
-116 -262 263 0
-266 -197 267 0
-116 -265 266 0
-271 274 275 0
271 -274 275 0
-271 -274 275 0
-270 -201 271 0
-116 -269 270 0
-273 -205 274 0
-116 -272 273 0
-291 283 290 0
-283 279 282 0
-279 278 0
-279 213 0
-278 116 0
-278 277 0
-282 281 0
-282 217 0
-281 116 0
-281 280 0
-290 286 289 0
-286 285 0
-286 221 0
-285 116 0
-285 284 0
-289 288 0
-289 225 0
-288 116 0
-288 287 0
-323 354 355 0
323 -354 355 0
-323 -354 355 0
-308 322 323 0
308 -322 323 0
-308 -322 323 0
-300 307 308 0
300 -307 308 0
-300 -307 308 0
-296 299 300 0
296 -299 300 0
-296 -299 300 0
-295 -139 296 0
-2 -294 295 0
-298 -147 299 0
-2 -297 298 0
-303 306 307 0
303 -306 307 0
-303 -306 307 0
-302 -155 303 0
-2 -301 302 0
-305 -163 306 0
-2 -304 305 0
-315 321 322 0
315 -321 322 0
-315 -321 322 0
-311 314 315 0
311 -314 315 0
-311 -314 315 0
-310 -171 311 0
-2 -309 310 0
-313 -175 314 0
-2 -312 313 0
-317 320 321 0
317 -320 321 0
-317 -320 321 0
-316 -179 317 0
-319 -229 320 0
-2 -318 319 0
-338 353 354 0
338 -353 354 0
-338 -353 354 0
-330 337 338 0
330 -337 338 0
-330 -337 338 0
-326 329 330 0
326 -329 330 0
-326 -329 330 0
-325 -193 326 0
-2 -324 325 0
-328 -197 329 0
-2 -327 328 0
-333 336 337 0
333 -336 337 0
-333 -336 337 0
-332 -201 333 0
-2 -331 332 0
-335 -205 336 0
-2 -334 335 0
-345 352 353 0
345 -352 353 0
-345 -352 353 0
-341 344 345 0
341 -344 345 0
-341 -344 345 0
-340 -213 341 0
-2 -339 340 0
-343 -217 344 0
-2 -342 343 0
-348 351 352 0
348 -351 352 0
-348 -351 352 0
-347 -221 348 0
-2 -346 347 0
-350 -225 351 0
-2 -349 350 0
-404 452 453 0
404 -452 453 0
-404 -452 453 0
-380 403 404 0
380 -403 404 0
-380 -403 404 0
-367 379 380 0
367 -379 380 0
-367 -379 380 0
-361 366 367 0
361 -366 367 0
-361 -366 367 0
-358 360 361 0
358 -360 361 0
-358 -360 361 0
-357 -28 358 0
-1 -233 357 0
-359 -36 360 0
-1 -236 359 0
-363 365 366 0
363 -365 366 0
-363 -365 366 0
-362 -44 363 0
-1 -240 362 0
-364 -52 365 0
-1 -243 364 0
-372 378 379 0
372 -378 379 0
-372 -378 379 0
-369 371 372 0
369 -371 372 0
-369 -371 372 0
-368 -60 369 0
-1 -248 368 0
-370 -64 371 0
-1 -251 370 0
-374 377 378 0
374 -377 378 0
-374 -377 378 0
-373 -68 374 0
-1 -255 373 0
-376 -72 377 0
-1 -375 376 0
-391 402 403 0
391 -402 403 0
-391 -402 403 0
-385 390 391 0
385 -390 391 0
-385 -390 391 0
-382 384 385 0
382 -384 385 0
-382 -384 385 0
-381 -80 382 0
-1 -262 381 0
-383 -84 384 0
-1 -265 383 0
-387 389 390 0
387 -389 390 0
-387 -389 390 0
-386 -88 387 0
-1 -269 386 0
-388 -92 389 0
-1 -272 388 0
-396 401 402 0
396 -401 402 0
-396 -401 402 0
-393 395 396 0
393 -395 396 0
-393 -395 396 0
-392 -100 393 0
-1 -277 392 0
-394 -104 395 0
-1 -280 394 0
-398 400 401 0
398 -400 401 0
-398 -400 401 0
-397 -108 398 0
-1 -284 397 0
-399 -112 400 0
-1 -287 399 0
-428 451 452 0
428 -451 452 0
-428 -451 452 0
-415 427 428 0
415 -427 428 0
-415 -427 428 0
-409 414 415 0
409 -414 415 0
-409 -414 415 0
-406 408 409 0
406 -408 409 0
-406 -408 409 0
-405 -28 406 0
-2 -294 405 0
-407 -36 408 0
-2 -297 407 0
-411 413 414 0
411 -413 414 0
-411 -413 414 0
-410 -44 411 0
-2 -301 410 0
-412 -52 413 0
-2 -304 412 0
-420 426 427 0
420 -426 427 0
-420 -426 427 0
-417 419 420 0
417 -419 420 0
-417 -419 420 0
-416 -60 417 0
-2 -309 416 0
-418 -64 419 0
-2 -312 418 0
-423 425 426 0
423 -425 426 0
-423 -425 426 0
-422 -68 423 0
-2 -421 422 0
-424 -72 425 0
-2 -318 424 0
-439 450 451 0
439 -450 451 0
-439 -450 451 0
-433 438 439 0
433 -438 439 0
-433 -438 439 0
-430 432 433 0
430 -432 433 0
-430 -432 433 0
-429 -80 430 0
-2 -324 429 0
-431 -84 432 0
-2 -327 431 0
-435 437 438 0
435 -437 438 0
-435 -437 438 0
-434 -88 435 0
-2 -331 434 0
-436 -92 437 0
-2 -334 436 0
-444 449 450 0
444 -449 450 0
-444 -449 450 0
-441 443 444 0
441 -443 444 0
-441 -443 444 0
-440 -100 441 0
-2 -339 440 0
-442 -104 443 0
-2 -342 442 0
-446 448 449 0
446 -448 449 0
-446 -448 449 0
-445 -108 446 0
-2 -346 445 0
-447 -112 448 0
-2 -349 447 0
1407 0
4 -1408 0
8 -1408 0
-4 -8 1408 0
20 -1409 0
16 -1409 0
-20 -16 1409 0
24 -1410 0
12 -1410 0
-24 -12 1410 0
8 -1411 0
5 -1411 0
-8 -5 1411 0
32 -1412 0
24 -1412 0
-32 -24 1412 0
4 -1413 0
9 -1413 0
-4 -9 1413 0
40 -1414 0
24 -1414 0
-40 -24 1414 0
5 -1415 0
9 -1415 0
-5 -9 1415 0
48 -1416 0
24 -1416 0
-48 -24 1416 0
20 -1417 0
17 -1417 0
-20 -17 1417 0
56 -1418 0
12 -1418 0
-56 -12 1418 0
56 -1419 0
32 -1419 0
-56 -32 1419 0
56 -1420 0
40 -1420 0
-56 -40 1420 0
56 -1421 0
48 -1421 0
-56 -48 1421 0
16 -1422 0
21 -1422 0
-16 -21 1422 0
12 -1423 0
76 -1423 0
-12 -76 1423 0
32 -1424 0
76 -1424 0
-32 -76 1424 0
40 -1425 0
76 -1425 0
-40 -76 1425 0
48 -1426 0
76 -1426 0
-48 -76 1426 0
21 -1427 0
17 -1427 0
-21 -17 1427 0
12 -1428 0
96 -1428 0
-12 -96 1428 0
32 -1429 0
96 -1429 0
-32 -96 1429 0
40 -1430 0
96 -1430 0
-40 -96 1430 0
48 -1431 0
96 -1431 0
-48 -96 1431 0
122 -1432 0
119 -1432 0
-122 -119 1432 0
129 -1433 0
132 -1433 0
-129 -132 1433 0
135 -1434 0
125 -1434 0
-135 -125 1434 0
5 -1435 0
122 -1435 0
-5 -122 1435 0
135 -1436 0
143 -1436 0
-135 -143 1436 0
9 -1437 0
119 -1437 0
-9 -119 1437 0
151 -1438 0
135 -1438 0
-151 -135 1438 0
159 -1439 0
135 -1439 0
-159 -135 1439 0
17 -1440 0
132 -1440 0
-17 -132 1440 0
167 -1441 0
125 -1441 0
-167 -125 1441 0
167 -1442 0
143 -1442 0
-167 -143 1442 0
167 -1443 0
151 -1443 0
-167 -151 1443 0
21 -1444 0
129 -1444 0
-21 -129 1444 0
189 -1445 0
125 -1445 0
-189 -125 1445 0
189 -1446 0
143 -1446 0
-189 -143 1446 0
151 -1447 0
189 -1447 0
-151 -189 1447 0
159 -1448 0
189 -1448 0
-159 -189 1448 0
209 -1449 0
125 -1449 0
-209 -125 1449 0
209 -1450 0
143 -1450 0
-209 -143 1450 0
151 -1451 0
209 -1451 0
-151 -209 1451 0
159 -1452 0
209 -1452 0
-159 -209 1452 0
167 -1453 0
159 -1453 0
-167 -159 1453 0
233 -1454 0
116 -1454 0
-233 -116 1454 0
139 -1455 0
234 -1455 0
-139 -234 1455 0
236 -1456 0
116 -1456 0
-236 -116 1456 0
147 -1457 0
237 -1457 0
-147 -237 1457 0
-235 -1458 0
-238 -1458 0
235 238 1458 0
240 -1459 0
116 -1459 0
-240 -116 1459 0
155 -1460 0
241 -1460 0
-155 -241 1460 0
243 -1461 0
116 -1461 0
-243 -116 1461 0
163 -1462 0
244 -1462 0
-163 -244 1462 0
-242 -1463 0
-245 -1463 0
242 245 1463 0
-239 -1464 0
-246 -1464 0
239 246 1464 0
248 -1465 0
116 -1465 0
-248 -116 1465 0
171 -1466 0
249 -1466 0
-171 -249 1466 0
251 -1467 0
116 -1467 0
-251 -116 1467 0
175 -1468 0
252 -1468 0
-175 -252 1468 0
-250 -1469 0
-253 -1469 0
250 253 1469 0
255 -1470 0
116 -1470 0
-255 -116 1470 0
179 -1471 0
256 -1471 0
-179 -256 1471 0
-254 -1472 0
-259 -1472 0
254 259 1472 0
-247 -1473 0
-260 -1473 0
247 260 1473 0
262 -1474 0
116 -1474 0
-262 -116 1474 0
193 -1475 0
263 -1475 0
-193 -263 1475 0
265 -1476 0
116 -1476 0
-265 -116 1476 0
197 -1477 0
266 -1477 0
-197 -266 1477 0
-264 -1478 0
-267 -1478 0
264 267 1478 0
269 -1479 0
116 -1479 0
-269 -116 1479 0
201 -1480 0
270 -1480 0
-201 -270 1480 0
272 -1481 0
116 -1481 0
-272 -116 1481 0
205 -1482 0
273 -1482 0
-205 -273 1482 0
-271 -1483 0
-274 -1483 0
271 274 1483 0
-268 -1484 0
-275 -1484 0
268 275 1484 0
277 -1485 0
116 -1485 0
-277 -116 1485 0
213 -1486 0
278 -1486 0
-213 -278 1486 0
280 -1487 0
116 -1487 0
-280 -116 1487 0
217 -1488 0
281 -1488 0
-217 -281 1488 0
-279 -1489 0
-282 -1489 0
279 282 1489 0
284 -1490 0
116 -1490 0
-284 -116 1490 0
221 -1491 0
285 -1491 0
-221 -285 1491 0
287 -1492 0
116 -1492 0
-287 -116 1492 0
225 -1493 0
288 -1493 0
-225 -288 1493 0
-286 -1494 0
-289 -1494 0
286 289 1494 0
-283 -1495 0
1494 -1495 0
283 -1494 1495 0
-276 -1496 0
291 -1496 0
276 -291 1496 0
-261 -1497 0
1496 -1497 0
261 -1496 1497 0
294 -1498 0
2 -1498 0
-294 -2 1498 0
139 -1499 0
295 -1499 0
-139 -295 1499 0
297 -1500 0
2 -1500 0
-297 -2 1500 0
147 -1501 0
298 -1501 0
-147 -298 1501 0
-296 -1502 0
-299 -1502 0
296 299 1502 0
301 -1503 0
2 -1503 0
-301 -2 1503 0
155 -1504 0
302 -1504 0
-155 -302 1504 0
304 -1505 0
2 -1505 0
-304 -2 1505 0
163 -1506 0
305 -1506 0
-163 -305 1506 0
-303 -1507 0
-306 -1507 0
303 306 1507 0
-300 -1508 0
-307 -1508 0
300 307 1508 0
309 -1509 0
2 -1509 0
-309 -2 1509 0
171 -1510 0
310 -1510 0
-171 -310 1510 0
312 -1511 0
2 -1511 0
-312 -2 1511 0
175 -1512 0
313 -1512 0
-175 -313 1512 0
-311 -1513 0
-314 -1513 0
311 314 1513 0
318 -1514 0
2 -1514 0
-318 -2 1514 0
229 -1515 0
319 -1515 0
-229 -319 1515 0
-317 -1516 0
-320 -1516 0
317 320 1516 0
-315 -1517 0
1516 -1517 0
315 -1516 1517 0
-308 -1518 0
-322 -1518 0
308 322 1518 0
324 -1519 0
2 -1519 0
-324 -2 1519 0
193 -1520 0
325 -1520 0
-193 -325 1520 0
327 -1521 0
2 -1521 0
-327 -2 1521 0
197 -1522 0
328 -1522 0
-197 -328 1522 0
-326 -1523 0
-329 -1523 0
326 329 1523 0
331 -1524 0
2 -1524 0
-331 -2 1524 0
201 -1525 0
332 -1525 0
-201 -332 1525 0
334 -1526 0
2 -1526 0
-334 -2 1526 0
205 -1527 0
335 -1527 0
-205 -335 1527 0
-333 -1528 0
-336 -1528 0
333 336 1528 0
-330 -1529 0
-337 -1529 0
330 337 1529 0
339 -1530 0
2 -1530 0
-339 -2 1530 0
213 -1531 0
340 -1531 0
-213 -340 1531 0
342 -1532 0
2 -1532 0
-342 -2 1532 0
217 -1533 0
343 -1533 0
-217 -343 1533 0
-341 -1534 0
-344 -1534 0
341 344 1534 0
346 -1535 0
2 -1535 0
-346 -2 1535 0
221 -1536 0
347 -1536 0
-221 -347 1536 0
349 -1537 0
2 -1537 0
-349 -2 1537 0
225 -1538 0
350 -1538 0
-225 -350 1538 0
-348 -1539 0
-351 -1539 0
348 351 1539 0
-345 -1540 0
-352 -1540 0
345 352 1540 0
-338 -1541 0
1540 -1541 0
338 -1540 1541 0
-323 -1542 0
-354 -1542 0
323 354 1542 0
-293 -1543 0
1542 -1543 0
293 -1542 1543 0
1 -1544 0
233 -1544 0
-1 -233 1544 0
28 -1545 0
357 -1545 0
-28 -357 1545 0
1 -1546 0
236 -1546 0
-1 -236 1546 0
36 -1547 0
359 -1547 0
-36 -359 1547 0
-358 -1548 0
-360 -1548 0
358 360 1548 0
1 -1549 0
240 -1549 0
-1 -240 1549 0
44 -1550 0
362 -1550 0
-44 -362 1550 0
1 -1551 0
243 -1551 0
-1 -243 1551 0
52 -1552 0
364 -1552 0
-52 -364 1552 0
-363 -1553 0
-365 -1553 0
363 365 1553 0
-361 -1554 0
-366 -1554 0
361 366 1554 0
1 -1555 0
248 -1555 0
-1 -248 1555 0
60 -1556 0
368 -1556 0
-60 -368 1556 0
1 -1557 0
251 -1557 0
-1 -251 1557 0
64 -1558 0
370 -1558 0
-64 -370 1558 0
-369 -1559 0
-371 -1559 0
369 371 1559 0
1 -1560 0
255 -1560 0
-1 -255 1560 0
68 -1561 0
373 -1561 0
-68 -373 1561 0
1 -1562 0
375 -1562 0
-1 -375 1562 0
72 -1563 0
376 -1563 0
-72 -376 1563 0
-374 -1564 0
-377 -1564 0
374 377 1564 0
-372 -1565 0
-378 -1565 0
372 378 1565 0
-367 -1566 0
1565 -1566 0
367 -1565 1566 0
1 -1567 0
262 -1567 0
-1 -262 1567 0
80 -1568 0
381 -1568 0
-80 -381 1568 0
265 -1569 0
1 -1569 0
-265 -1 1569 0
84 -1570 0
383 -1570 0
-84 -383 1570 0
-382 -1571 0
-384 -1571 0
382 384 1571 0
269 -1572 0
1 -1572 0
-269 -1 1572 0
88 -1573 0
386 -1573 0
-88 -386 1573 0
272 -1574 0
1 -1574 0
-272 -1 1574 0
92 -1575 0
388 -1575 0
-92 -388 1575 0
-387 -1576 0
-389 -1576 0
387 389 1576 0
-385 -1577 0
-390 -1577 0
385 390 1577 0
277 -1578 0
1 -1578 0
-277 -1 1578 0
100 -1579 0
392 -1579 0
-100 -392 1579 0
280 -1580 0
1 -1580 0
-280 -1 1580 0
104 -1581 0
394 -1581 0
-104 -394 1581 0
-393 -1582 0
-395 -1582 0
393 395 1582 0
284 -1583 0
1 -1583 0
-284 -1 1583 0
108 -1584 0
397 -1584 0
-108 -397 1584 0
287 -1585 0
1 -1585 0
-287 -1 1585 0
112 -1586 0
399 -1586 0
-112 -399 1586 0
-398 -1587 0
-400 -1587 0
398 400 1587 0
-396 -1588 0
-401 -1588 0
396 401 1588 0
-391 -1589 0
1588 -1589 0
391 -1588 1589 0
-380 -1590 0
-403 -1590 0
380 403 1590 0
28 -1591 0
405 -1591 0
-28 -405 1591 0
36 -1592 0
407 -1592 0
-36 -407 1592 0
-406 -1593 0
-408 -1593 0
406 408 1593 0
44 -1594 0
410 -1594 0
-44 -410 1594 0
52 -1595 0
412 -1595 0
-52 -412 1595 0
-411 -1596 0
-413 -1596 0
411 413 1596 0
-409 -1597 0
-414 -1597 0
409 414 1597 0
60 -1598 0
416 -1598 0
-60 -416 1598 0
64 -1599 0
418 -1599 0
-64 -418 1599 0
-417 -1600 0
-419 -1600 0
417 419 1600 0
421 -1601 0
2 -1601 0
-421 -2 1601 0
68 -1602 0
422 -1602 0
-68 -422 1602 0
72 -1603 0
424 -1603 0
-72 -424 1603 0
-423 -1604 0
-425 -1604 0
423 425 1604 0
-420 -1605 0
-426 -1605 0
420 426 1605 0
-415 -1606 0
-427 -1606 0
415 427 1606 0
80 -1607 0
429 -1607 0
-80 -429 1607 0
84 -1608 0
431 -1608 0
-84 -431 1608 0
-430 -1609 0
-432 -1609 0
430 432 1609 0
88 -1610 0
434 -1610 0
-88 -434 1610 0
92 -1611 0
436 -1611 0
-92 -436 1611 0
-435 -1612 0
-437 -1612 0
435 437 1612 0
-433 -1613 0
-438 -1613 0
433 438 1613 0
100 -1614 0
440 -1614 0
-100 -440 1614 0
104 -1615 0
442 -1615 0
-104 -442 1615 0
-441 -1616 0
-443 -1616 0
441 443 1616 0
108 -1617 0
445 -1617 0
-108 -445 1617 0
112 -1618 0
447 -1618 0
-112 -447 1618 0
-446 -1619 0
-448 -1619 0
446 448 1619 0
-444 -1620 0
-449 -1620 0
444 449 1620 0
-439 -1621 0
1620 -1621 0
439 -1620 1621 0
-428 -1622 0
-451 -1622 0
428 451 1622 0
-404 -1623 0
1622 -1623 0
404 -1622 1623 0
